(set-info :smt-lib-version 2.6)
(set-logic AUFBVFPDTNIRA)
(set-info :source |
Generated by: AdaCore
Generated on: 2020-03-06
Generator: SPARK
Application: Program verification for Ada
Target solver: Z3
|)
(set-info :license "https://creativecommons.org/licenses/by/4.0/")
(set-info :category "industrial")
(set-info :status unknown)
;;; generated by SMT-LIB2 driver
;;; SMT-LIB2 driver: bit-vectors, common part
;;; SMT-LIB2: integer arithmetic
(declare-sort string 0)

(declare-datatypes () ((tuple0 (Tuple0))))
(declare-sort us_private 0)

(declare-fun private__bool_eq (us_private us_private) Bool)

(declare-const us_null_ext__ us_private)

(declare-sort us_type_of_heap 0)

(declare-datatypes ()
((us_type_of_heap__ref
 (us_type_of_heap__refqtmk (us_type_of_heap__content us_type_of_heap)))))
(declare-sort us_image 0)

(declare-datatypes () ((int__ref (int__refqtmk (int__content Int)))))
(declare-datatypes () ((bool__ref (bool__refqtmk (bool__content Bool)))))
(declare-datatypes ()
((us_fixed__ref (us_fixed__refqtmk (us_fixed__content Int)))))
(declare-datatypes () ((real__ref (real__refqtmk (real__content Real)))))
(declare-datatypes ()
((us_private__ref (us_private__refqtmk (us_private__content us_private)))))
(define-fun int__ref___projection ((a int__ref)) Int (int__content a))

(define-fun us_fixed__ref___projection ((a us_fixed__ref)) Int (us_fixed__content
                                                               a))

(define-fun bool__ref___projection ((a bool__ref)) Bool (bool__content a))

(define-fun real__ref___projection ((a real__ref)) Real (real__content a))

(define-fun us_private__ref___projection ((a us_private__ref)) us_private 
  (us_private__content a))

(define-fun in_range ((x Int)) Bool (or (= x 0) (= x 1)))

(declare-fun attr__ATTRIBUTE_IMAGE (Bool) us_image)

(declare-fun attr__ATTRIBUTE_VALUE__pre_check (us_image) Bool)

(declare-fun attr__ATTRIBUTE_VALUE (us_image) Bool)

(declare-sort integer 0)

(declare-fun integerqtint (integer) Int)

;; integer'axiom
  (assert
  (forall ((i integer))
  (and (<= (- 2147483648) (integerqtint i)) (<= (integerqtint i) 2147483647))))

(define-fun in_range1 ((x Int)) Bool (and (<= (- 2147483648) x)
                                     (<= x 2147483647)))

(declare-fun attr__ATTRIBUTE_IMAGE1 (Int) us_image)

(declare-fun attr__ATTRIBUTE_VALUE__pre_check1 (us_image) Bool)

(declare-fun attr__ATTRIBUTE_VALUE1 (us_image) Int)

(declare-fun user_eq (integer integer) Bool)

(declare-const dummy integer)

(declare-datatypes ()
((integer__ref (integer__refqtmk (integer__content integer)))))
(define-fun integer__ref_integer__content__projection ((a integer__ref)) integer 
  (integer__content a))

(define-fun dynamic_invariant ((temp___expr_18 Int) (temp___is_init_14 Bool)
  (temp___skip_constant_15 Bool) (temp___do_toplevel_16 Bool)
  (temp___do_typ_inv_17 Bool)) Bool (=>
                                    (or (= temp___is_init_14 true)
                                    (<= (- 2147483648) 2147483647))
                                    (in_range1 temp___expr_18)))

(define-fun to_rep ((x integer)) Int (integerqtint x))

(declare-fun of_rep (Int) integer)

;; inversion_axiom
  (assert
  (forall ((x integer)) (! (= (of_rep (to_rep x)) x) :pattern ((to_rep x)) )))

;; range_axiom
  (assert
  (forall ((x integer)) (! (in_range1 (to_rep x)) :pattern ((to_rep x)) )))

;; coerce_axiom
  (assert
  (forall ((x Int))
  (! (=> (in_range1 x) (= (to_rep (of_rep x)) x)) :pattern ((to_rep
                                                            (of_rep x))) )))

(declare-datatypes ()
((map__ref (map__refqtmk (map__content (Array Int integer))))))
(declare-fun slide ((Array Int integer) Int Int) (Array Int integer))

;; slide_eq
  (assert
  (forall ((a (Array Int integer)))
  (forall ((first Int))
  (! (= (slide a first first) a) :pattern ((slide a first first)) ))))

;; slide_def
  (assert
  (forall ((a (Array Int integer)))
  (forall ((old_first Int))
  (forall ((new_first Int))
  (forall ((i Int))
  (! (= (select (slide a old_first new_first) i) (select a (- i (- new_first old_first)))) :pattern ((select 
  (slide a old_first new_first) i)) ))))))

(define-fun bool_eq ((a (Array Int integer)) (a__first Int) (a__last Int)
  (b (Array Int integer)) (b__first Int)
  (b__last Int)) Bool (ite (and
                           (ite (<= a__first a__last)
                           (and (<= b__first b__last)
                           (= (- a__last a__first) (- b__last b__first)))
                           (< b__last b__first))
                           (forall ((temp___idx_154 Int))
                           (=>
                           (and (<= a__first temp___idx_154)
                           (<= temp___idx_154 a__last))
                           (= (to_rep (select a temp___idx_154)) (to_rep
                                                                 (select b (+ (- b__first a__first) temp___idx_154)))))))
                      true false))

;; bool_eq_rev
  (assert
  (forall ((a (Array Int integer)) (b (Array Int integer)))
  (forall ((a__first Int) (a__last Int) (b__first Int) (b__last Int))
  (=> (= (bool_eq b b__first b__last a a__first a__last) true)
  (and
  (ite (<= a__first a__last)
  (and (<= b__first b__last) (= (- a__last a__first) (- b__last b__first)))
  (< b__last b__first))
  (forall ((temp___idx_154 Int))
  (=> (and (<= a__first temp___idx_154) (<= temp___idx_154 a__last))
  (= (to_rep (select a temp___idx_154)) (to_rep
                                        (select b (+ (- b__first a__first) temp___idx_154)))))))))))

(declare-const b (Array Int integer))

(declare-const attr__ATTRIBUTE_ADDRESS Int)

(declare-const threshold Int)

(declare-const attr__ATTRIBUTE_ADDRESS1 Int)

(declare-const attr__ATTRIBUTE_ADDRESS2 Int)

(declare-const attr__ATTRIBUTE_ADDRESS3 Int)

(declare-fun prev (Int) Int)

(declare-fun prev__function_guard (Int Int) Bool)

(declare-sort index 0)

(declare-fun indexqtint (index) Int)

;; index'axiom
  (assert
  (forall ((i index)) (and (<= 1 (indexqtint i)) (<= (indexqtint i) 10))))

(define-fun in_range2 ((x Int)) Bool (and (<= 1 x) (<= x 10)))

(declare-fun attr__ATTRIBUTE_IMAGE2 (Int) us_image)

(declare-fun attr__ATTRIBUTE_VALUE__pre_check2 (us_image) Bool)

(declare-fun attr__ATTRIBUTE_VALUE2 (us_image) Int)

(declare-fun user_eq1 (index index) Bool)

(declare-const dummy1 index)

(declare-datatypes () ((index__ref (index__refqtmk (index__content index)))))
(define-fun index__ref_index__content__projection ((a index__ref)) index 
  (index__content a))

(define-fun dynamic_invariant1 ((temp___expr_160 Int)
  (temp___is_init_156 Bool) (temp___skip_constant_157 Bool)
  (temp___do_toplevel_158 Bool)
  (temp___do_typ_inv_159 Bool)) Bool (=>
                                     (or (= temp___is_init_156 true)
                                     (<= 1 10)) (in_range2 temp___expr_160)))

;; prev__post_axiom
  (assert
  (forall ((x Int))
  (! (=> (dynamic_invariant1 x true true true true)
     (let ((result (prev x)))
     (=> (prev__function_guard result x) (dynamic_invariant result true false
     true true)))) :pattern ((prev x)) )))

;; prev__def_axiom
  (assert
  (forall ((x Int))
  (! (=> (dynamic_invariant1 x true true true true) (= (prev x) (- x 1))) :pattern (
  (prev x)) )))

(declare-const attr__ATTRIBUTE_ADDRESS4 Int)

(declare-const a (Array Int integer))

;; Assume
  (assert true)

;; Assume
  (assert (dynamic_invariant threshold true false true true))

;; Assume
  (assert true)

(declare-const cur Int)

;; H
  (assert (= cur 0))

;; Assume
  (assert (dynamic_invariant cur true false true true))

(declare-const i Int)

;; H
  (assert (= i 1))

;; H
  (assert
  (= (and (ite (<= 1 i) true false) (ite (<= i 10) true false)) true))

(declare-const temp___loop_entry_187 Int)

;; H
  (assert (= temp___loop_entry_187 cur))

(define-fun o () Int (prev i))

;; H
  (assert (prev__function_guard o i))

;; H
  (assert (dynamic_invariant o true false true true))

;; H
  (assert (= o (- i 1)))

(declare-const usf Int)

(define-fun o1 () Int (prev i))

;; H
  (assert (prev__function_guard o1 i))

;; H
  (assert (dynamic_invariant o1 true false true true))

;; H
  (assert (= o1 (- i 1)))

;; H
  (assert
  (= (and (ite (<= 1 usf) true false) (ite (<= usf o1) true false)) true))

;; Assert
  (assert (and (<= 1 usf) (<= usf 10)))

(declare-const o2 Int)

;; Ensures
  (assert (= (to_rep (select b usf)) o2))

;; H
  (assert (< threshold o2))

(declare-const usf1 Int)

;; H
  (assert
  (= (and (ite (<= 1 usf1) true false) (ite (<= usf1 cur) true false)) true))

(assert
;; defqtvc
 ;; File "tab.ads", line 4, characters 0-0
  (not (<= 1 usf)))
(check-sat)

(exit)
